qbf_easy_train/easy_5981_SAT.qdimacs
p cnf 32 86
a 10 14 6 0
e 1 2 3 4 5 7 8 9 11 12 13 15 16 17 18 19 20 21 22 23 24 25 26 27 28 29 30 31 32 0
-3 1 0
-3 2 0
-1 -2 3 0
-5 -3 0
-5 4 0
3 -4 5 0
7 1 0
7 6 0
-1 -6 -7 0
10 -8 0
10 -9 0
8 9 -10 0
-1 -4 -11 0
1 4 -11 0
-1 4 11 0
1 -4 11 0
-12 10 0
-12 11 0
-10 -11 12 0
12 -13 -14 0
-12 13 -14 0
12 13 14 0
-12 -13 14 0
-15 -7 0
-15 14 0
7 -14 15 0
-16 2 0
-16 2 0
-2 16 0
10 -16 -17 0
-10 16 -17 0
10 16 17 0
-10 -16 17 0
18 4 0
18 4 0
-4 -18 0
19 4 0
19 8 0
-4 -8 -19 0
20 -18 0
20 -19 0
18 19 -20 0
21 -17 0
21 -20 0
17 20 -21 0
22 8 0
22 2 0
-8 -2 -22 0
11 6 -23 0
-11 -6 -23 0
11 -6 23 0
-11 6 23 0
24 -22 0
24 -23 0
22 23 -24 0
-25 6 0
-25 -24 0
-6 24 25 0
3 25 -26 0
-3 -25 -26 0
3 -25 26 0
-3 25 26 0
-27 21 0
-27 26 0
-21 -26 27 0
29 28 0
29 23 0
-28 -23 -29 0
30 27 0
30 29 0
-27 -29 -30 0
-31 15 0
-31 30 0
-15 -30 31 0
32 -5 0
32 -31 0
5 31 -32 0
3 27 -15 -2 0
21 7 -22 -17 -20 23 0
26 20 -16 -17 -24 3 -9 21 0
-32 -10 -17 -6 -27 4 -28 -30 0
-10 22 17 30 20 9 0
5 31 29 22 -16 -3 21 0
-31 5 -20 -6 13 -28 -10 -11 0
-4 25 18 -15 0
32 0
