sat_easy_train/easy_5981_SAT.dimacs
p cnf 111 359
-4 -2 0
-4 3 0
2 -3 4 0
-5 1 0
-5 -4 0
-1 4 5 0
8 -6 0
8 -7 0
6 7 -8 0
8 -9 -10 0
-8 9 -10 0
8 9 10 0
-8 -9 10 0
-13 11 0
-13 -12 0
-11 12 13 0
14 -13 0
14 -7 0
13 7 -14 0
15 -9 0
15 7 0
9 -7 -15 0
-16 6 0
-16 15 0
-6 -15 16 0
-17 -14 0
-17 16 0
14 -16 17 0
-18 10 0
-18 -17 0
-10 17 18 0
-5 -18 -19 0
5 18 -19 0
-5 18 19 0
5 -18 19 0
-3 6 -21 0
3 -6 -21 0
-3 -6 21 0
3 6 21 0
-22 20 0
-22 21 0
-20 -21 22 0
-8 -23 -24 0
8 23 -24 0
-8 23 24 0
8 -23 24 0
24 20 -25 0
-24 -20 -25 0
24 -20 25 0
-24 20 25 0
10 -23 -26 0
-10 23 -26 0
10 23 26 0
-10 -23 26 0
28 27 0
28 11 0
-27 -11 -28 0
-29 26 0
-29 28 0
-26 -28 29 0
-30 9 0
-30 29 0
-9 -29 30 0
31 -25 0
31 -30 0
25 30 -31 0
32 22 0
32 -31 0
-22 31 -32 0
-28 -10 -33 0
28 10 -33 0
-28 10 33 0
28 -10 33 0
34 32 0
34 33 0
-32 -33 -34 0
12 -16 -35 0
-12 16 -35 0
12 16 35 0
-12 -16 35 0
36 2 0
36 35 0
-2 -35 -36 0
37 27 0
37 26 0
-27 -26 -37 0
39 -11 0
39 -38 0
11 38 -39 0
-40 37 0
-40 -39 0
-37 39 40 0
-36 -40 -41 0
36 40 -41 0
-36 40 41 0
36 -40 41 0
-42 34 0
-42 -41 0
-34 41 42 0
-43 -9 0
-43 -6 0
9 6 43 0
-42 43 -44 0
42 -43 -44 0
-42 -43 44 0
42 43 44 0
39 35 -45 0
-39 -35 -45 0
39 -35 45 0
-39 35 45 0
-46 -3 0
-46 27 0
3 -27 46 0
45 -46 -47 0
-45 46 -47 0
45 46 47 0
-45 -46 47 0
49 -48 0
49 -11 0
48 11 -49 0
50 -15 0
50 -49 0
15 49 -50 0
-51 50 0
-51 40 0
-50 -40 51 0
52 -47 0
52 -51 0
47 51 -52 0
-53 11 0
-53 9 0
-11 -9 53 0
-54 39 0
-54 53 0
-39 -53 54 0
1 -49 -55 0
-1 49 -55 0
1 49 55 0
-1 -49 55 0
-15 -55 -56 0
15 55 -56 0
-15 55 56 0
15 -55 56 0
-57 54 0
-57 -56 0
-54 56 57 0
58 -52 0
58 57 0
52 -57 -58 0
59 -44 0
59 58 0
44 -58 -59 0
19 59 -60 0
-19 -59 -60 0
19 -59 60 0
-19 59 60 0
61 4 0
61 -7 0
-4 7 -61 0
62 -3 0
62 7 0
3 -7 -62 0
63 -2 0
63 -6 0
2 6 -63 0
64 -28 0
64 24 0
28 -24 -64 0
64 17 -65 0
-64 -17 -65 0
64 -17 65 0
-64 17 65 0
-63 65 -66 0
63 -65 -66 0
-63 -65 66 0
63 65 66 0
-62 -66 -67 0
62 66 -67 0
-62 66 67 0
62 -66 67 0
10 -1 -68 0
-10 1 -68 0
10 1 68 0
-10 -1 68 0
-69 -28 0
-69 68 0
28 -68 69 0
27 -8 -70 0
-27 8 -70 0
27 8 70 0
-27 -8 70 0
-72 70 0
-72 71 0
-70 -71 72 0
73 69 0
73 -72 0
-69 72 -73 0
-75 -6 0
-75 -74 0
6 74 75 0
-76 75 0
-76 -15 0
-75 15 76 0
77 73 0
77 76 0
-73 -76 -77 0
78 -24 0
78 50 0
24 -50 -78 0
78 -79 -80 0
-78 79 -80 0
78 79 80 0
-78 -79 80 0
81 77 0
81 80 0
-77 -80 -81 0
82 64 0
82 74 0
-64 -74 -82 0
-83 50 0
-83 3 0
-50 -3 83 0
84 -82 0
84 -83 0
82 83 -84 0
85 81 0
85 -84 0
-81 84 -85 0
-6 -13 -86 0
6 13 -86 0
-6 13 86 0
6 -13 86 0
87 -38 0
87 -6 0
38 6 -87 0
-88 -86 0
-88 -87 0
86 87 88 0
89 85 0
89 88 0
-85 -88 -89 0
-90 -67 0
-90 -89 0
67 89 90 0
-61 90 -91 0
61 -90 -91 0
-61 -90 91 0
61 90 91 0
-23 3 -92 0
23 -3 -92 0
-23 -3 92 0
23 3 92 0
-92 -6 -93 0
92 6 -93 0
-92 6 93 0
92 -6 93 0
94 27 0
94 -49 0
-27 49 -94 0
95 -8 0
95 94 0
8 -94 -95 0
-96 -70 0
-96 39 0
70 -39 96 0
97 -95 0
97 96 0
95 -96 -97 0
98 93 0
98 -97 0
-93 97 -98 0
-99 91 0
-99 98 0
-91 -98 99 0
-100 -48 0
-100 48 0
101 37 0
101 40 0
-37 -40 -101 0
102 -100 0
102 -101 0
100 101 -102 0
-103 14 0
-103 27 0
-14 -27 103 0
104 -102 0
104 103 0
102 -103 -104 0
-99 104 -105 0
99 -104 -105 0
-99 -104 105 0
99 104 105 0
106 9 0
106 12 0
-9 -12 -106 0
-107 -24 0
-107 106 0
24 -106 107 0
-108 -64 0
-108 -9 0
64 9 108 0
-109 107 0
-109 108 0
-107 -108 109 0
-105 109 -110 0
105 -109 -110 0
-105 -109 110 0
105 109 110 0
-111 60 0
-111 110 0
-60 -110 111 0
-50 70 -84 16 -106 -66 0
18 -3 0
90 24 -25 61 -76 -27 0
-31 -26 -104 -30 0
96 86 -83 -90 23 -104 0
-21 -6 -23 61 0
108 21 -53 8 -106 0
75 44 -55 -79 -29 -106 0
38 -79 0
51 74 -3 76 -66 0
-22 20 24 54 0
7 93 89 -87 -58 0
66 81 35 -15 21 46 0
98 97 -105 -25 36 102 0
35 -26 54 -29 -64 -105 0
104 -88 -1 87 65 0
7 69 -48 77 0
-63 109 -110 56 12 -83 0
34 45 0
-34 -89 -92 29 -86 0
68 -99 32 12 0
-75 8 21 0
-76 -50 0
-5 -82 39 -44 -65 -63 0
-63 28 -70 -72 0
29 -26 -70 -19 -85 0
-30 98 0
51 -9 -61 -16 20 -46 0
2 -13 7 -74 -25 0
-87 31 0
-77 -24 0
85 -99 0
76 -23 39 0
-59 2 -93 66 52 -75 0
98 -47 -73 -51 43 0
102 -65 41 -42 0
38 107 29 35 0
100 -55 31 103 -52 0
-27 -59 0
58 -107 50 -19 -46 0
-35 86 -27 0
94 -23 -80 -64 0
-53 -45 0
11 -45 -78 -73 0
-104 -42 0
-94 106 -73 -82 -96 83 0
-8 27 98 -104 0
111 0
